data;

set J := 1 2 3 4 5 6 7 8 9 10 11 12 13 14 15 16 17 18 19 20 21 22 23 24 25 26 27 28 29 30 31 32 33 34 35 36 37 38 39 40 41 42 43 44 45 46 47 48 49 50 51 52 53 54 55 56 57 58 59 60 61 62 63 64 65 66 67 68 69 70 71 72 73 74 75 76 77 78 79 80 81 82 83 84 85 86 87 88 89 90 91 92 93 94 95 96 97 98 99 100 101 102 103 104 105 106 107 108 109 110 111 112 113 114 115 116 117 118 119 120 121 122 123 124 125 126 127 128 129 130 131 132 133 134 135 136 137 138 139 140 141 142 143 144 145 146 147 148 149 150 151 152 153 154 155 156 157 158 159 160 161 162 163 164 165 166 167 168 169 170 171 172 173 174 175 176 177 178 179 180 181 182 183 184 185 186 187 188 189 190 191 192 193 194 195 196 197 198 199 200 201 202 203 204 205 206 207 208 209 210 211 212 213 214 215 216 217 218 219 220 221 222 223 224 225 226 227 228 229 230 231 232 233 234 235 236 237 238 239 240 241 242 243 244 245 246 247 248 249 250;
set I := 1 2 3 4 5 6 7 8 9 10 11 12 13 14 15 16 17 18 19 20 21 22 23 24 25 26 27 28 29 30 31 32 33 34 35 36 37 38 39 40 41 42 43 44 45 46 47 48 49 50 51 52 53 54 55 56 57 58 59 60 61 62 63 64 65 66 67 68 69 70 71 72 73 74 75 76 77 78 79 80 81 82 83 84 85 86 87 88 89 90 91 92 93 94 95 96 97 98 99 100 101 102 103 104 105 106 107 108 109 110 111 112 113 114 115 116 117 118 119 120 121 122 123 124 125 126 127 128 129 130 131 132 133 134 135 136 137 138 139 140 141 142 143 144 145 146 147 148 149 150 151 152 153 154 155 156 157 158 159 160 161 162 163 164 165 166 167 168 169 170 171 172 173 174 175 176 177 178 179 180 181 182 183 184 185 186 187 188 189 190 191 192 193 194 195 196 197 198 199 200 201 202 203;

param p := 
    1 144
    2 73
    3 1
    4 37
    5 44
    6 74
    7 7
    8 68
    9 69
    10 16
    11 79
    12 45
    13 116
    14 24
    15 90
    16 149
    17 134
    18 36
    19 28
    20 107
    21 125
    22 38
    23 81
    24 107
    25 136
    26 137
    27 1
    28 3
    29 108
    30 36
    31 114
    32 141
    33 48
    34 13
    35 136
    36 45
    37 61
    38 82
    39 42
    40 24
    41 112
    42 68
    43 102
    44 1
    45 139
    46 80
    47 123
    48 143
    49 77
    50 115
    51 4
    52 107
    53 68
    54 148
    55 90
    56 49
    57 135
    58 15
    59 30
    60 118
    61 66
    62 101
    63 79
    64 61
    65 109
    66 43
    67 24
    68 29
    69 47
    70 60
    71 120
    72 151
    73 90
    74 92
    75 55
    76 73
    77 15
    78 102
    79 7
    80 56
    81 147
    82 69
    83 139
    84 25
    85 111
    86 91
    87 38
    88 147
    89 122
    90 25
    91 50
    92 95
    93 141
    94 29
    95 85
    96 34
    97 103
    98 133
    99 121
    100 75
    101 7
    102 22
    103 95
    104 31
    105 82
    106 6
    107 27
    108 55
    109 152
    110 137
    111 90
    112 81
    113 57
    114 123
    115 142
    116 49
    117 2
    118 35
    119 51
    120 122
    121 66
    122 127
    123 2
    124 45
    125 107
    126 26
    127 148
    128 20
    129 50
    130 61
    131 30
    132 76
    133 63
    134 25
    135 113
    136 43
    137 45
    138 140
    139 70
    140 44
    141 64
    142 34
    143 75
    144 33
    145 65
    146 120
    147 98
    148 64
    149 64
    150 123
    151 124
    152 65
    153 99
    154 76
    155 85
    156 83
    157 111
    158 39
    159 15
    160 19
    161 25
    162 62
    163 152
    164 116
    165 153
    166 28
    167 51
    168 131
    169 69
    170 8
    171 114
    172 107
    173 60
    174 27
    175 24
    176 102
    177 6
    178 125
    179 134
    180 52
    181 147
    182 104
    183 89
    184 18
    185 105
    186 88
    187 3
    188 83
    189 16
    190 4
    191 30
    192 152
    193 131
    194 49
    195 130
    196 94
    197 100
    198 30
    199 68
    200 132
    201 139
    202 107
    203 1
    204 128
    205 89
    206 65
    207 87
    208 118
    209 50
    210 62
    211 29
    212 20
    213 152
    214 70
    215 106
    216 92
    217 4
    218 66
    219 37
    220 140
    221 65
    222 139
    223 35
    224 49
    225 118
    226 46
    227 23
    228 126
    229 12
    230 7
    231 67
    232 40
    233 9
    234 119
    235 58
    236 154
    237 37
    238 133
    239 152
    240 72
    241 112
    242 51
    243 3
    244 119
    245 122
    246 118
    247 78
    248 52
    249 32
    250 4;

param r := 
    1 39
    2 106
    3 140
    4 1
    5 135
    6 154
    7 176
    8 143
    9 136
    10 46
    11 32
    12 78
    13 164
    14 7
    15 79
    16 65
    17 100
    18 70
    19 75
    20 152
    21 142
    22 14
    23 161
    24 10
    25 54
    26 49
    27 115
    28 69
    29 172
    30 85
    31 88
    32 178
    33 17
    34 65
    35 113
    36 24
    37 14
    38 86
    39 20
    40 155
    41 100
    42 111
    43 61
    44 140
    45 143
    46 101
    47 15
    48 136
    49 171
    50 104
    51 76
    52 106
    53 1
    54 111
    55 125
    56 167
    57 81
    58 47
    59 56
    60 125
    61 148
    62 116
    63 177
    64 87
    65 79
    66 94
    67 38
    68 67
    69 86
    70 39
    71 140
    72 23
    73 85
    74 4
    75 97
    76 5
    77 139
    78 87
    79 26
    80 170
    81 174
    82 75
    83 99
    84 116
    85 108
    86 162
    87 56
    88 33
    89 178
    90 109
    91 124
    92 37
    93 14
    94 42
    95 77
    96 37
    97 22
    98 100
    99 110
    100 4
    101 59
    102 52
    103 42
    104 10
    105 179
    106 54
    107 17
    108 118
    109 17
    110 122
    111 157
    112 155
    113 4
    114 135
    115 165
    116 26
    117 35
    118 144
    119 42
    120 173
    121 83
    122 5
    123 135
    124 157
    125 151
    126 168
    127 96
    128 138
    129 99
    130 27
    131 153
    132 52
    133 89
    134 147
    135 56
    136 48
    137 38
    138 81
    139 167
    140 91
    141 12
    142 45
    143 7
    144 21
    145 53
    146 127
    147 1
    148 133
    149 96
    150 26
    151 53
    152 49
    153 179
    154 125
    155 85
    156 40
    157 125
    158 101
    159 154
    160 100
    161 20
    162 64
    163 143
    164 1
    165 42
    166 77
    167 103
    168 38
    169 123
    170 58
    171 155
    172 161
    173 48
    174 138
    175 19
    176 76
    177 88
    178 88
    179 163
    180 33
    181 25
    182 168
    183 7
    184 125
    185 174
    186 11
    187 41
    188 151
    189 121
    190 117
    191 123
    192 152
    193 109
    194 170
    195 178
    196 167
    197 161
    198 138
    199 63
    200 107
    201 177
    202 33
    203 94
    204 146
    205 144
    206 33
    207 177
    208 10
    209 116
    210 91
    211 99
    212 75
    213 109
    214 105
    215 71
    216 98
    217 143
    218 13
    219 157
    220 68
    221 108
    222 122
    223 69
    224 98
    225 179
    226 120
    227 83
    228 163
    229 79
    230 172
    231 155
    232 155
    233 9
    234 124
    235 48
    236 175
    237 142
    238 58
    239 17
    240 143
    241 129
    242 45
    243 46
    244 147
    245 55
    246 60
    247 137
    248 157
    249 79
    250 1;

param T := 154;
param R := 179;
param M := 1000000;

end;